NAME : eil101.tsp
TYPE : TOUR
DIMENSION : 101
TOUR_LENGTH : 720.1263305203504
TOUR_SECTION
1
69
27
101
53
58
40
26
12
80
68
77
3
79
78
34
35
71
65
66
20
30
70
10
90
32
63
11
19
47
36
49
64
62
88
31
52
18
83
84
5
60
96
99
59
92
37
98
100
91
85
93
61
16
44
14
42
87
97
95
94
6
89
7
82
48
46
8
45
17
86
38
43
15
57
2
13
21
73
72
74
75
22
41
23
56
39
67
25
55
4
54
24
29
76
50
28
33
81
9
51
-1
